NAME : portcgen-28-10
COMMENT : portcgen N=28, seed=10
TYPE : TSP
DIMENSION : 28
EDGE_WEIGHT_TYPE : EUC_2D
NODE_COORD_SECTION
1 -179548 299674
2 196671 132173
3 80131 80638
4 239441 -87922
5 12673 -52567
6 -36736 -8510
7 194753 43763
8 73844 84330
9 -294051 13035
10 -197415 188288
11 51249 -219769
12 -54688 65918
13 -216377 -184834
14 -121022 194002
15 96196 -71703
16 -228903 -117499
17 266095 23762
18 25530 -307838
19 -114252 -133466
20 27509 598674
21 -74912 30226
22 -66378 -149751
23 -229802 14595
24 191373 -8461
25 116619 176386
26 -109480 -158229
27 44798 -12904
28 -124017 299188
